NAME : TSP_INST.7729948.tour
COMMENT : Length = 7729948
COMMENT : Found by LKH [Keld Helsgaun] Sat Oct 18 11:07:56 2025
TYPE : TOUR
DIMENSION : 100
TOUR_SECTION
1
15
30
40
47
98
9
92
94
41
91
52
8
73
17
69
2
16
38
19
34
60
5
75
54
50
57
3
29
78
13
10
93
79
27
81
37
26
83
82
14
58
63
20
6
21
72
64
95
74
65
76
84
22
36
87
43
25
35
32
4
45
46
44
7
24
97
59
88
70
90
49
55
62
80
68
51
39
89
86
61
11
18
100
53
23
56
66
12
99
67
33
28
71
77
31
48
96
42
85
-1
EOF
